param set_len = 48;
param target_sum = 12704121555;
param values := [1] 519562377 [2] 783523380 [3] 587819482 [4] 560074969 [5] 584662765 [6] 762994623 [7] 29107276 [8] 611546529 [9] 314226141 [10] 849808237 [11] 656558872 [12] 1067545781 [13] 397021956 [14] 477514365 [15] 28399687 [16] 770197366 [17] 402661621 [18] 693650949 [19] 646092125 [20] 982619857 [21] 652644837 [22] 810809437 [23] 641036003 [24] 1062076627 [25] 994628689 [26] 114996866 [27] 14028065 [28] 355283764 [29] 979859699 [30] 331650920 [31] 974867163 [32] 150372744 [33] 472518972 [34] 551962180 [35] 33792550 [36] 444814885 [37] 668406032 [38] 672569716 [39] 815282306 [40] 683599905 [41] 604154031 [42] 979892200 [43] 954866344 [44] 57903206 [45] 83919647 [46] 195510076 [47] 331108424 [48] 386458841 ;
